
  32    4
  10   10   10   10

   0   0   0   0   0   5 2 11 29 30 31 
   8   1   1   1   0   4 28 13 6 3 
   3   5   0   7   1   2 8 4 
  10   6   0   6   4   1 5 
   3   0   5   1   3   3 26 9 7 
   4   1   5   3   0   2 8 7 
   1   4   4   0   2   7 25 24 23 22 21 15 14 
   1   5   0   5   5   7 26 25 24 23 22 15 14 
   3   5   4   2   0   4 27 24 22 10 
   1   5   7   3   0   1 12 
   3   5   0   4   6   3 22 21 16 
   3   2   5   6   0   2 21 14 
   7   3   4   2   0   2 23 15 
   4   2   4   6   0   1 16 
   3   0   2   4   5   1 16 
   6   4   4   2   0   1 17 
   8   0   3   3   6   2 20 18 
   7   6   3   7   0   1 19 
   4   6   2   6   0   1 32
   6   3   5   2   0   1 32
   1   5   0   4   6   1 32
   8   6   7   3   0   1 32
   8   0   2   7   2   1 32
   2   5   4   5   0   1 32
   9   0   5   4   8   1 32
   2   4   0   4   2   1 32
   3   2   0   3   4   1 32
   6   3   0   6   2   1 32
   4   4   0   2   4   1 32
   4   4   4   0   4   1 32
   5   4   0   4   4   1 32
   0   0   0   0   0   0 
